interdiction/MCDM/NO_CORR/GEN_FROM_60/20_ITEMS_1000_GEN/K5020W09.KNP.mps
NAME          BLANK   
ROWS
 N  OBJROW
 L  R0000000
COLUMNS
    C0000000  OBJROW     -736.         R0000000  606.        
    C0000001  OBJROW     -387.         R0000000  963.        
    C0000002  OBJROW     -38.          R0000000  664.        
    C0000003  OBJROW     -376.         R0000000  354.        
    C0000004  OBJROW     -10.          R0000000  543.        
    C0000005  OBJROW     -216.         R0000000  424.        
    C0000006  OBJROW     -410.         R0000000  914.        
    C0000007  OBJROW     -407.         R0000000  119.        
    C0000008  OBJROW     -392.         R0000000  740.        
    C0000009  OBJROW     -152.         R0000000  148.        
    C0000010  OBJROW     -546.         R0000000  111.        
    C0000011  OBJROW     -625.         R0000000  828.        
    C0000012  OBJROW     -584.         R0000000  653.        
    C0000013  OBJROW     -904.         R0000000  427.        
    C0000014  OBJROW     -304.         R0000000  390.        
    C0000015  OBJROW     -288.         R0000000  102.        
    C0000016  OBJROW     -448.         R0000000  67.         
    C0000017  OBJROW     -577.         R0000000  945.        
    C0000018  OBJROW     -763.         R0000000  911.        
    C0000019  OBJROW     -785.         R0000000  431.        
RHS
    RHS       R0000000  14716.      
BOUNDS
 BV BOUND     C0000000  1.          
 BV BOUND     C0000001  1.          
 BV BOUND     C0000002  1.          
 BV BOUND     C0000003  1.          
 BV BOUND     C0000004  1.          
 BV BOUND     C0000005  1.          
 BV BOUND     C0000006  1.          
 BV BOUND     C0000007  1.          
 BV BOUND     C0000008  1.          
 BV BOUND     C0000009  1.          
 BV BOUND     C0000010  1.          
 BV BOUND     C0000011  1.          
 BV BOUND     C0000012  1.          
 BV BOUND     C0000013  1.          
 BV BOUND     C0000014  1.          
 BV BOUND     C0000015  1.          
 BV BOUND     C0000016  1.          
 BV BOUND     C0000017  1.          
 BV BOUND     C0000018  1.          
 BV BOUND     C0000019  1.          
ENDATA
