data/MCDM/NO_CORR/GEN_FROM_60/20_ITEMS_1000_GEN/K5020W09.KNP.txt
N 20
M 21
LC 20
LC 21
LC 22
LC 23
LC 24
LC 25
LC 26
LC 27
LC 28
LC 29
LC 30
LC 31
LC 32
LC 33
LC 34
LC 35
LC 36
LC 37
LC 38
LC 39
LR 1
LR 2
LR 3
LR 4
LR 5
LR 6
LR 7
LR 8
LR 9
LR 10
LR 11
LR 12
LR 13
LR 14
LR 15
LR 16
LR 17
LR 18
LR 19
LR 20
LR 21
LO -736
LO -387
LO -38
LO -376
LO -10
LO -216
LO -410
LO -407
LO -392
LO -152
LO -546
LO -625
LO -584
LO -904
LO -304
LO -288
LO -448
LO -577
LO -763
LO -785
OS 1
IC 874
IC 185
IC 104
IC 314
IC 721
IC 327
IC 31
IC 602
IC 602
IC 711
IC 371
IC 439
IC 500
IC 158
IC 543
IC 381
IC 143
IC 253
IC 766
IC 215
IB 4120
